<number of tasks>
1000

<cycle time>
1000

<order strength>
0,896


<task times>
1 141
2 233
3 388
4 345
5 395
6 651
7 426
8 400
9 717
10 377
11 302
12 602
13 710
14 638
15 686
16 531
17 617
18 446
19 578
20 507
21 513
22 680
23 418
24 320
25 347
26 494
27 582
28 620
29 466
30 512
31 538
32 475
33 548
34 587
35 644
36 495
37 582
38 372
39 299
40 523
41 574
42 515
43 520
44 636
45 484
46 340
47 605
48 428
49 448
50 362
51 512
52 166
53 516
54 302
55 487
56 347
57 547
58 461
59 424
60 653
61 628
62 538
63 633
64 468
65 302
66 419
67 617
68 567
69 473
70 418
71 621
72 654
73 401
74 619
75 525
76 579
77 428
78 393
79 531
80 740
81 590
82 509
83 442
84 533
85 652
86 498
87 555
88 575
89 575
90 667
91 493
92 294
93 529
94 680
95 547
96 688
97 714
98 596
99 441
100 581
101 385
102 503
103 582
104 714
105 497
106 474
107 679
108 409
109 585
110 402
111 633
112 547
113 399
114 555
115 550
116 583
117 505
118 546
119 270
120 483
121 546
122 533
123 636
124 637
125 528
126 454
127 374
128 629
129 221
130 482
131 631
132 433
133 533
134 534
135 594
136 497
137 621
138 540
139 490
140 524
141 663
142 537
143 490
144 355
145 535
146 533
147 466
148 312
149 531
150 582
151 346
152 502
153 426
154 553
155 385
156 413
157 680
158 460
159 552
160 527
161 535
162 356
163 466
164 374
165 606
166 616
167 374
168 503
169 443
170 481
171 520
172 494
173 697
174 807
175 353
176 494
177 467
178 495
179 584
180 427
181 572
182 376
183 516
184 547
185 475
186 583
187 546
188 657
189 619
190 557
191 566
192 713
193 526
194 490
195 519
196 688
197 630
198 523
199 359
200 345
201 747
202 475
203 510
204 437
205 477
206 400
207 392
208 486
209 441
210 658
211 596
212 491
213 728
214 495
215 479
216 697
217 358
218 413
219 245
220 556
221 644
222 444
223 437
224 502
225 458
226 634
227 692
228 548
229 530
230 588
231 484
232 348
233 240
234 304
235 283
236 569
237 477
238 458
239 499
240 385
241 399
242 469
243 426
244 673
245 438
246 318
247 594
248 460
249 729
250 590
251 439
252 544
253 408
254 500
255 297
256 457
257 453
258 733
259 375
260 569
261 518
262 461
263 400
264 515
265 442
266 656
267 392
268 465
269 226
270 452
271 551
272 458
273 487
274 676
275 367
276 590
277 620
278 332
279 437
280 574
281 423
282 625
283 593
284 442
285 445
286 529
287 533
288 545
289 390
290 477
291 357
292 675
293 423
294 403
295 437
296 397
297 509
298 610
299 679
300 542
301 443
302 515
303 573
304 600
305 450
306 590
307 539
308 471
309 254
310 762
311 520
312 611
313 547
314 539
315 444
316 446
317 497
318 598
319 562
320 481
321 353
322 672
323 568
324 617
325 483
326 574
327 481
328 631
329 332
330 361
331 574
332 414
333 565
334 496
335 479
336 596
337 716
338 297
339 403
340 546
341 603
342 554
343 380
344 610
345 458
346 606
347 693
348 422
349 445
350 271
351 516
352 655
353 540
354 314
355 383
356 579
357 439
358 486
359 558
360 387
361 733
362 409
363 411
364 262
365 546
366 498
367 555
368 448
369 569
370 558
371 470
372 518
373 446
374 428
375 546
376 541
377 301
378 568
379 374
380 662
381 616
382 480
383 618
384 109
385 596
386 571
387 605
388 487
389 668
390 364
391 366
392 487
393 381
394 772
395 570
396 406
397 446
398 570
399 296
400 502
401 310
402 609
403 548
404 662
405 423
406 547
407 464
408 638
409 338
410 487
411 552
412 271
413 343
414 447
415 535
416 527
417 561
418 604
419 543
420 460
421 489
422 565
423 449
424 574
425 297
426 462
427 165
428 495
429 484
430 562
431 557
432 607
433 290
434 513
435 552
436 450
437 440
438 409
439 448
440 390
441 686
442 409
443 466
444 564
445 467
446 510
447 609
448 552
449 618
450 490
451 590
452 380
453 499
454 500
455 662
456 539
457 277
458 422
459 469
460 732
461 607
462 561
463 541
464 466
465 365
466 750
467 592
468 775
469 675
470 608
471 461
472 351
473 395
474 509
475 674
476 651
477 560
478 552
479 398
480 493
481 616
482 625
483 635
484 689
485 538
486 671
487 280
488 500
489 611
490 314
491 713
492 585
493 298
494 397
495 542
496 567
497 336
498 543
499 419
500 706
501 538
502 451
503 309
504 448
505 488
506 450
507 709
508 177
509 599
510 519
511 558
512 531
513 435
514 423
515 275
516 501
517 465
518 706
519 404
520 408
521 418
522 486
523 595
524 363
525 517
526 637
527 458
528 795
529 446
530 345
531 410
532 639
533 553
534 527
535 454
536 630
537 354
538 586
539 328
540 517
541 465
542 572
543 628
544 448
545 550
546 449
547 432
548 327
549 646
550 472
551 734
552 576
553 477
554 553
555 424
556 388
557 519
558 452
559 754
560 760
561 436
562 387
563 630
564 464
565 451
566 394
567 419
568 254
569 535
570 316
571 528
572 458
573 541
574 433
575 464
576 427
577 533
578 647
579 455
580 389
581 568
582 647
583 552
584 533
585 549
586 509
587 468
588 419
589 503
590 523
591 427
592 607
593 227
594 99
595 283
596 699
597 732
598 597
599 572
600 551
601 823
602 424
603 593
604 641
605 304
606 517
607 455
608 608
609 634
610 277
611 580
612 303
613 643
614 621
615 527
616 328
617 442
618 553
619 447
620 633
621 419
622 416
623 736
624 599
625 565
626 400
627 534
628 546
629 622
630 318
631 495
632 667
633 596
634 377
635 624
636 456
637 534
638 519
639 309
640 692
641 512
642 407
643 531
644 450
645 575
646 553
647 597
648 275
649 709
650 473
651 556
652 570
653 468
654 530
655 334
656 517
657 491
658 340
659 518
660 613
661 684
662 644
663 571
664 627
665 573
666 310
667 429
668 597
669 500
670 513
671 608
672 508
673 458
674 592
675 602
676 448
677 549
678 509
679 352
680 568
681 386
682 759
683 607
684 378
685 580
686 553
687 524
688 509
689 595
690 591
691 475
692 447
693 292
694 571
695 507
696 516
697 289
698 568
699 369
700 656
701 541
702 597
703 503
704 448
705 456
706 506
707 522
708 406
709 547
710 504
711 412
712 473
713 638
714 518
715 387
716 459
717 697
718 462
719 647
720 669
721 372
722 537
723 558
724 489
725 433
726 346
727 600
728 636
729 337
730 464
731 621
732 530
733 597
734 240
735 372
736 624
737 367
738 574
739 724
740 557
741 509
742 689
743 275
744 514
745 467
746 608
747 587
748 383
749 678
750 429
751 663
752 455
753 727
754 503
755 388
756 458
757 528
758 540
759 495
760 405
761 513
762 478
763 374
764 500
765 495
766 445
767 404
768 500
769 500
770 514
771 447
772 500
773 583
774 298
775 403
776 470
777 445
778 448
779 571
780 450
781 490
782 603
783 598
784 519
785 523
786 305
787 410
788 469
789 594
790 611
791 196
792 483
793 439
794 529
795 468
796 497
797 540
798 662
799 529
800 635
801 383
802 397
803 647
804 559
805 480
806 425
807 518
808 548
809 513
810 548
811 469
812 532
813 307
814 358
815 571
816 789
817 282
818 490
819 330
820 411
821 788
822 409
823 585
824 500
825 555
826 590
827 507
828 498
829 415
830 403
831 686
832 644
833 543
834 467
835 642
836 454
837 521
838 689
839 448
840 395
841 552
842 662
843 526
844 455
845 465
846 513
847 532
848 587
849 663
850 478
851 491
852 515
853 566
854 553
855 528
856 272
857 490
858 354
859 385
860 657
861 363
862 620
863 718
864 583
865 607
866 678
867 497
868 488
869 508
870 690
871 305
872 452
873 444
874 578
875 530
876 398
877 552
878 238
879 505
880 524
881 487
882 481
883 517
884 537
885 540
886 580
887 524
888 400
889 539
890 588
891 658
892 499
893 447
894 365
895 522
896 457
897 631
898 685
899 504
900 502
901 654
902 591
903 476
904 594
905 597
906 496
907 521
908 593
909 539
910 452
911 494
912 372
913 611
914 551
915 365
916 592
917 534
918 251
919 606
920 446
921 518
922 765
923 499
924 448
925 615
926 327
927 532
928 630
929 605
930 345
931 656
932 492
933 325
934 563
935 382
936 450
937 403
938 690
939 463
940 457
941 342
942 660
943 524
944 502
945 336
946 633
947 691
948 109
949 240
950 525
951 631
952 526
953 529
954 539
955 521
956 612
957 478
958 514
959 519
960 379
961 440
962 551
963 426
964 580
965 532
966 442
967 293
968 443
969 575
970 458
971 519
972 384
973 558
974 444
975 414
976 452
977 568
978 423
979 501
980 477
981 467
982 176
983 606
984 387
985 488
986 480
987 589
988 355
989 621
990 724
991 590
992 522
993 591
994 433
995 321
996 519
997 419
998 455
999 535
1000 691

<precedence relations>
1,150
1,173
2,11
2,12
2,13
2,14
2,15
2,16
2,17
3,11
3,15
3,16
3,17
4,11
4,13
4,16
5,15
5,17
6,11
6,12
6,17
7,11
7,12
7,13
7,14
7,17
8,11
8,12
8,13
9,11
9,12
9,14
10,11
10,12
10,13
10,14
11,18
11,19
11,20
11,21
11,22
12,21
12,249
12,271
13,18
13,19
13,20
13,21
14,22
14,36
14,37
15,18
15,19
15,20
15,21
15,22
16,18
16,19
16,20
16,21
16,22
17,18
17,19
17,20
17,21
17,22
18,23
18,24
18,25
18,26
18,27
18,28
18,29
19,23
19,24
20,23
20,25
20,29
21,577
21,622
21,649
22,24
22,27
22,28
23,30
23,31
23,37
24,34
25,30
25,31
25,32
25,33
25,37
26,30
26,31
26,35
26,36
27,30
27,31
28,30
28,31
29,30
29,33
30,38
30,39
30,40
30,43
31,38
31,41
32,38
32,39
32,40
32,41
32,42
33,38
34,38
34,39
34,40
34,41
34,42
34,43
35,38
35,39
35,40
35,41
35,42
36,38
37,38
37,39
37,40
37,58
38,44
39,44
39,45
39,46
39,47
39,49
40,44
41,44
41,45
42,44
42,45
42,48
42,50
43,44
43,45
43,46
44,53
44,57
44,66
45,55
45,59
46,51
46,52
46,53
47,66
48,51
48,52
48,56
48,58
48,59
49,51
50,51
50,52
50,53
50,54
50,58
50,59
51,60
51,61
51,62
51,63
52,60
52,61
52,62
52,63
52,64
52,65
53,64
54,60
54,61
54,62
54,63
54,65
54,66
55,60
55,66
56,60
56,61
56,63
56,66
57,60
57,61
58,60
58,61
58,65
58,66
59,60
59,61
59,62
59,63
60,67
60,68
60,69
60,70
60,71
60,72
60,73
60,74
61,239
62,67
63,67
63,68
63,69
63,72
63,73
63,74
64,67
64,68
65,67
66,67
66,68
66,73
66,74
67,75
67,76
67,77
67,78
67,79
67,80
68,75
68,76
68,80
69,75
69,76
69,77
69,79
69,80
70,75
70,76
70,77
71,205
72,75
72,76
73,75
73,76
73,80
74,75
74,76
74,77
74,78
74,79
74,80
75,81
75,82
75,83
75,84
75,86
76,81
76,82
76,83
76,84
76,85
76,86
77,95
78,81
79,81
79,82
79,83
80,81
80,82
80,83
80,84
81,87
81,89
82,87
82,88
82,110
83,87
83,88
83,90
83,93
84,87
84,88
84,89
84,90
84,91
84,92
85,91
86,87
86,88
86,89
86,94
87,95
87,96
87,97
87,98
88,95
88,96
88,97
89,95
89,96
89,97
89,100
89,103
89,110
90,95
90,96
90,97
91,95
91,96
91,99
91,103
91,110
92,95
92,96
92,102
93,101
94,95
94,96
94,98
95,104
95,105
95,115
96,104
96,105
96,106
96,107
96,108
96,109
97,106
97,231
98,104
98,105
99,104
99,105
99,106
100,104
100,221
101,104
101,105
101,107
101,110
102,104
102,105
102,109
103,104
103,108
103,124
104,218
104,230
105,111
106,489
106,498
107,178
107,187
108,114
109,111
109,112
109,113
109,114
109,115
110,153
110,171
111,116
111,117
111,118
111,119
111,120
112,116
112,117
112,118
112,119
113,116
113,117
113,118
113,125
114,116
114,117
114,125
114,126
115,116
115,117
115,118
115,120
116,948
117,127
117,128
117,129
118,121
118,122
118,123
118,126
118,128
118,129
119,121
119,122
119,123
119,124
119,125
119,127
120,121
120,122
120,123
120,124
121,133
122,130
122,131
122,132
122,133
122,141
123,130
123,131
123,132
123,133
123,134
124,130
124,131
124,132
124,133
124,134
125,137
125,140
125,148
125,149
126,130
126,131
126,132
126,133
126,134
127,130
127,131
127,132
127,133
127,134
128,130
128,131
128,132
128,133
128,134
129,130
129,131
129,132
129,133
129,141
130,135
130,149
131,135
131,136
131,137
131,138
131,139
132,139
132,142
133,135
133,136
133,137
133,140
134,135
134,136
134,141
135,143
135,144
135,145
135,146
136,143
136,144
136,145
136,146
136,148
136,149
137,143
137,144
137,145
138,143
138,145
139,146
139,178
140,143
140,144
141,143
141,144
141,145
141,148
142,143
142,144
142,147
142,149
143,150
143,151
143,152
144,150
144,152
144,158
144,162
145,150
145,151
145,153
146,916
147,153
148,150
148,151
149,150
149,151
150,154
150,157
150,163
150,164
151,154
151,155
151,160
151,163
152,156
152,159
152,161
153,154
153,155
153,156
153,158
153,162
154,165
154,166
155,165
155,166
155,167
155,168
155,169
155,173
156,165
156,166
156,167
156,168
156,169
156,172
156,173
157,165
157,166
157,167
157,171
157,172
158,165
158,166
158,167
158,169
159,165
160,232
161,220
162,165
162,166
162,168
162,173
163,165
163,166
163,167
163,168
163,170
164,299
164,398
165,174
165,175
165,176
165,177
165,180
166,174
166,176
166,178
166,179
166,180
166,186
167,174
167,175
168,174
168,175
168,176
169,174
169,175
169,176
169,177
170,179
171,177
172,174
172,175
172,180
172,184
173,174
174,185
175,181
176,182
176,184
176,187
177,181
177,182
177,183
177,186
178,181
178,182
178,183
178,184
179,181
179,182
179,187
180,227
181,188
181,189
181,190
181,192
181,193
181,194
181,195
182,190
183,188
183,189
183,191
183,193
184,188
184,189
184,190
184,191
184,201
185,188
185,189
185,190
185,191
185,192
186,188
186,189
186,190
186,191
186,201
187,188
187,189
187,190
187,194
188,197
189,196
189,197
189,198
189,199
189,200
189,207
190,196
190,197
191,196
191,197
191,200
192,196
192,197
192,198
192,201
193,196
193,207
194,196
194,197
194,198
194,199
195,239
196,202
196,203
196,204
196,205
197,202
197,203
197,204
197,205
198,202
198,203
198,205
198,206
198,208
198,209
199,202
200,202
200,203
200,204
201,202
201,203
201,206
201,207
202,210
202,213
203,210
203,211
203,215
204,210
204,211
204,212
204,221
205,210
205,211
205,212
205,214
206,210
206,211
207,210
207,211
207,224
208,210
208,211
208,221
208,224
209,210
209,211
209,212
209,213
209,214
209,215
210,216
210,218
210,219
210,223
211,216
211,217
211,218
211,222
211,225
212,216
212,217
212,218
212,220
212,224
212,225
213,554
213,673
214,216
215,216
215,221
215,225
215,231
216,226
216,227
216,228
216,229
216,230
217,226
217,227
217,228
218,226
218,227
218,228
218,229
218,231
219,226
219,229
220,226
220,227
220,228
221,226
221,227
222,226
222,230
222,231
223,226
223,227
223,231
224,226
224,227
224,228
224,229
224,230
224,231
225,228
226,232
226,233
226,234
226,235
226,236
227,232
227,233
227,234
227,235
227,236
228,232
228,233
228,234
228,235
229,232
229,233
229,234
229,235
229,236
230,232
230,233
230,234
230,236
231,296
231,322
232,237
232,238
232,239
232,252
232,253
233,237
233,238
233,240
233,242
233,244
233,245
234,238
234,241
234,243
234,266
235,254
236,237
236,238
236,239
236,253
237,246
237,247
237,248
237,272
238,246
238,247
238,249
239,246
239,247
239,248
239,249
239,250
239,251
240,246
240,247
240,248
240,250
240,252
240,253
241,248
241,251
242,246
242,247
242,248
243,246
244,246
244,247
244,248
244,249
244,250
245,246
245,247
245,266
246,254
246,255
246,256
246,258
247,254
247,255
247,256
247,257
248,397
249,254
249,255
249,272
250,254
250,256
250,259
251,254
251,255
251,256
251,260
251,271
251,272
252,254
253,254
253,255
254,261
254,262
254,263
255,536
256,315
257,261
257,262
257,263
257,264
257,265
257,267
258,320
259,261
259,262
259,263
259,266
260,261
261,268
261,270
261,273
262,268
262,269
263,268
264,268
264,269
264,271
264,281
264,290
265,268
265,269
266,272
266,291
266,294
267,268
267,269
267,270
268,276
268,278
268,280
269,274
269,275
270,277
270,299
270,300
270,301
270,302
271,274
271,275
271,276
271,277
272,274
273,274
273,279
273,281
274,282
274,283
274,284
274,285
274,287
274,288
275,282
275,285
275,289
275,291
276,283
276,308
277,286
278,282
278,283
278,284
278,302
279,282
279,289
279,290
279,291
280,282
280,332
280,358
281,282
281,347
281,351
282,373
283,292
283,293
284,292
284,304
284,308
285,292
286,294
286,303
286,306
286,308
287,292
287,293
287,298
287,302
287,304
288,292
288,293
288,295
288,296
288,304
289,292
289,293
289,294
289,302
290,292
290,293
290,294
290,295
290,296
291,292
291,293
291,308
292,297
292,299
292,301
292,303
293,300
294,297
294,298
294,304
294,326
294,329
294,330
295,297
295,298
295,302
296,297
296,298
296,299
296,300
296,301
297,305
298,400
299,393
300,305
301,305
301,306
301,307
302,308
303,305
303,307
303,309
303,310
304,366
305,311
305,335
306,311
306,313
306,315
307,661
307,668
307,690
308,311
308,312
309,311
309,312
309,313
309,314
309,315
310,311
310,312
310,313
311,316
311,317
311,327
312,322
312,503
313,316
313,320
313,321
314,316
314,317
315,316
315,318
315,319
316,429
317,323
317,324
317,325
317,328
318,323
318,324
318,325
318,326
318,327
318,329
319,323
319,324
319,325
320,326
320,362
321,323
321,324
321,325
321,327
321,330
321,335
322,483
323,331
323,332
323,362
324,331
324,332
324,333
324,339
325,336
325,338
325,360
325,362
326,331
326,332
327,331
327,332
327,333
327,334
327,337
328,331
328,332
328,334
329,331
329,332
329,335
330,350
330,351
330,365
331,340
331,512
332,342
333,340
333,341
333,342
333,343
333,348
334,340
334,341
334,342
334,346
334,347
335,340
335,341
335,342
336,344
337,340
337,341
337,342
337,343
337,344
337,345
338,351
339,340
339,345
340,892
341,458
341,462
341,463
342,349
342,352
342,363
343,351
343,367
344,349
344,350
344,363
345,349
345,350
345,353
345,354
346,376
347,355
348,349
348,355
348,356
349,357
349,359
349,361
349,364
350,357
350,358
350,367
351,357
352,465
353,357
353,358
353,359
353,360
354,496
355,530
356,357
356,358
356,359
356,360
356,361
356,362
356,363
356,364
357,366
358,483
358,503
359,365
359,367
360,365
360,366
361,671
362,677
363,686
364,365
364,373
364,374
365,368
365,369
366,368
366,369
366,370
366,371
366,372
366,373
366,374
367,370
367,371
367,372
368,375
368,376
368,377
369,375
369,376
370,375
371,375
371,376
372,375
372,376
373,375
373,376
373,377
374,375
374,376
375,378
375,384
375,398
376,378
376,379
376,380
376,381
376,382
376,383
376,385
376,387
377,379
377,380
377,382
377,386
378,388
378,389
379,388
379,389
379,390
379,391
379,392
380,388
380,389
381,388
381,389
381,390
381,391
381,398
382,391
383,832
383,977
384,388
385,389
385,390
385,392
386,526
387,389
388,393
388,394
389,393
389,396
390,393
390,395
391,397
391,403
392,393
392,394
392,395
392,396
392,397
392,398
393,399
393,400
393,401
393,402
393,403
394,399
395,399
395,400
395,401
395,403
396,399
396,400
396,401
396,402
396,403
397,399
397,400
397,401
398,400
398,402
399,404
400,404
400,405
400,406
400,407
400,408
400,409
400,410
401,404
401,405
401,406
401,407
401,410
401,411
402,404
402,405
402,409
403,404
403,406
403,412
404,418
404,426
405,415
405,416
406,413
406,414
406,415
406,417
407,495
407,511
408,413
408,414
408,438
409,413
409,414
409,415
409,416
409,417
409,418
410,413
410,414
411,413
411,438
412,428
413,419
413,423
414,477
415,426
416,419
416,420
416,421
416,424
416,425
416,427
417,419
417,422
417,438
418,419
418,420
418,421
418,427
418,431
419,428
419,429
419,430
419,437
420,970
420,988
421,432
421,446
422,428
422,429
422,430
422,431
423,507
424,428
425,431
426,428
426,429
426,430
426,438
427,428
427,429
427,430
427,432
428,433
428,434
428,435
428,440
429,435
429,436
430,433
430,434
430,436
430,439
430,452
431,433
431,437
432,433
432,434
432,435
432,436
432,437
432,438
432,439
433,441
433,442
434,441
434,445
435,441
435,442
435,443
435,444
435,451
435,452
436,441
436,442
436,443
437,441
437,442
437,443
437,444
438,504
438,511
439,584
440,446
441,449
441,450
441,458
442,447
442,549
443,447
443,520
444,447
444,448
444,467
445,448
445,451
446,447
446,448
446,449
446,452
447,546
448,453
448,457
449,453
449,454
449,455
449,456
449,457
450,461
450,473
451,453
451,454
451,455
451,456
451,457
451,458
452,453
452,454
452,455
452,456
452,458
453,602
453,619
454,604
455,462
455,486
456,459
456,460
456,461
456,463
457,461
457,468
457,473
458,459
458,460
458,461
459,494
459,511
460,465
460,467
460,468
461,464
461,466
462,464
463,464
464,469
464,470
464,472
465,469
465,470
465,471
465,472
465,473
465,474
465,475
466,469
466,470
466,471
466,472
466,474
466,475
467,469
468,591
469,477
469,478
469,503
470,476
470,480
471,476
471,477
472,476
472,477
472,496
473,476
474,556
475,476
475,477
475,479
476,481
476,482
476,487
477,483
478,481
478,482
478,485
479,481
479,486
479,503
479,504
480,481
480,482
480,483
480,484
481,488
481,489
481,490
481,492
481,494
482,488
482,489
482,490
482,495
483,492
483,497
483,498
484,488
484,489
484,493
484,496
484,505
485,488
485,489
485,499
486,488
487,491
487,575
488,694
489,574
489,594
490,499
490,501
490,502
491,503
492,499
492,500
492,501
492,502
492,505
493,499
493,500
493,510
493,511
494,499
494,500
495,499
496,601
497,505
498,504
498,511
499,506
499,507
499,508
500,506
500,507
500,508
500,509
501,506
501,507
501,509
501,510
502,508
502,702
503,647
503,663
504,506
505,506
505,511
506,512
506,513
506,514
506,515
507,512
507,515
508,655
509,514
509,595
510,512
510,551
511,512
512,516
512,517
512,520
512,521
513,516
513,517
513,518
513,519
513,522
513,523
514,558
515,516
515,517
515,551
516,524
516,526
516,528
517,524
518,527
519,524
520,524
521,537
521,540
521,550
522,524
522,525
522,526
522,529
523,929
524,536
524,548
524,553
525,530
525,534
525,537
525,552
526,532
526,552
527,530
527,531
527,533
527,550
528,534
529,531
529,535
530,541
531,558
531,560
532,538
532,539
532,558
533,538
533,544
533,545
533,553
534,538
534,542
534,543
535,538
535,539
535,540
536,538
536,539
536,540
536,543
537,538
538,557
538,560
540,740
541,547
541,549
541,553
542,757
543,546
543,550
543,584
544,546
544,551
544,552
545,546
545,548
546,554
546,555
547,554
548,562
549,557
549,560
550,662
551,554
551,556
551,558
552,554
552,555
552,556
552,559
553,555
554,632
555,564
555,585
556,561
556,562
556,563
557,561
557,562
557,563
557,564
557,565
558,589
558,596
558,598
559,561
559,562
559,574
559,577
560,632
561,566
561,567
561,569
561,571
562,567
563,709
564,568
564,577
565,566
565,570
566,572
567,572
568,572
568,574
569,572
569,573
569,575
569,576
570,573
570,577
571,572
572,580
572,581
572,583
573,617
574,582
575,578
575,579
575,580
575,584
576,579
576,585
577,578
578,627
579,588
580,586
580,587
580,588
580,589
580,590
580,591
581,586
581,587
581,589
581,591
581,595
582,586
582,595
583,590
584,695
585,635
586,592
586,593
586,596
587,592
588,598
589,592
590,594
590,595
591,592
591,602
592,597
592,599
592,600
592,606
593,597
593,598
594,597
595,597
595,598
596,611
597,601
597,604
597,608
597,619
598,601
598,602
598,603
598,606
599,607
600,605
600,609
600,610
601,611
601,612
601,614
602,620
602,787
603,611
603,612
603,613
603,614
604,611
604,612
604,613
605,611
606,611
606,612
607,611
607,612
607,615
608,622
609,611
609,613
610,611
610,612
610,613
611,616
611,618
612,617
613,616
613,621
613,622
614,616
614,617
614,618
614,620
614,623
615,619
615,682
615,691
615,723
615,728
616,624
616,625
616,626
616,627
616,628
617,624
617,625
618,628
619,624
619,626
620,755
621,624
621,625
621,670
622,627
623,625
624,640
624,731
625,629
625,632
627,630
627,631
627,633
627,635
627,636
627,650
628,629
628,634
629,640
629,641
629,643
629,646
630,637
630,642
630,673
631,675
631,728
631,731
632,637
632,638
632,639
633,881
633,891
633,990
634,663
635,637
635,639
635,644
635,651
636,637
636,638
636,657
637,645
637,646
637,647
637,648
638,805
639,648
640,649
640,697
641,645
641,690
642,792
642,871
643,645
643,650
643,651
644,646
644,652
644,653
645,654
645,655
646,768
647,654
647,658
648,741
649,768
649,819
649,870
650,799
650,816
651,659
651,742
652,656
652,657
653,654
653,655
654,660
654,661
655,664
656,660
656,661
656,690
657,663
658,660
658,661
658,662
659,699
660,665
661,665
662,666
662,667
662,691
663,665
663,670
664,668
664,669
665,671
665,675
666,671
666,676
667,672
667,674
668,710
668,716
670,673
671,677
671,680
672,677
672,678
672,682
672,683
673,678
674,677
674,681
674,731
675,677
675,679
675,714
676,803
677,940
678,686
678,690
679,691
680,688
681,684
682,685
682,689
683,684
683,687
683,731
684,692
685,771
685,838
686,694
687,806
688,693
688,694
688,695
688,696
689,692
689,696
690,904
691,692
692,697
693,701
693,731
693,733
694,698
694,699
694,700
695,697
696,884
696,917
697,701
697,704
697,706
698,746
699,702
699,705
700,701
700,703
701,713
702,708
702,710
702,712
703,707
704,709
705,707
705,711
706,826
707,714
707,719
707,720
708,951
709,717
709,718
709,721
709,758
710,714
710,722
711,757
711,798
712,716
712,752
713,715
714,777
715,725
715,726
716,805
717,729
717,848
717,954
718,724
718,727
719,728
719,859
719,875
720,963
721,888
722,723
723,730
723,731
723,732
724,730
725,730
725,732
725,735
726,734
727,733
727,862
728,926
729,880
730,737
730,738
730,739
731,736
731,850
732,761
732,792
732,830
733,800
734,752
735,736
735,740
735,741
736,747
737,746
737,749
737,751
738,772
739,750
739,786
740,742
740,743
740,744
740,745
741,745
741,748
742,752
742,753
743,882
744,755
744,815
745,752
746,891
746,911
746,961
747,822
748,766
748,791
749,754
749,766
749,809
750,803
750,845
750,855
750,861
751,752
751,756
751,774
752,757
752,762
753,758
753,815
753,907
755,759
755,761
755,882
756,757
756,760
756,781
757,765
758,898
759,763
759,766
760,976
762,764
762,767
763,768
763,774
763,803
764,772
765,769
765,771
765,773
765,789
766,768
767,770
767,807
767,845
768,957
769,835
769,903
770,775
770,777
771,966
772,776
772,779
773,778
774,833
775,780
776,780
776,785
777,780
777,781
777,783
778,782
778,786
779,784
780,790
780,793
781,831
782,843
782,876
783,955
784,787
785,789
785,792
785,797
785,880
786,787
786,788
786,791
787,795
787,796
787,797
787,799
788,860
788,876
789,794
789,930
790,891
792,798
792,881
793,796
794,810
795,800
795,802
795,805
796,803
797,800
797,801
797,804
799,962
800,808
800,924
802,806
802,807
802,840
803,806
804,817
804,924
805,809
805,810
805,811
805,812
806,813
806,818
807,814
808,819
808,840
809,816
809,899
810,936
810,974
811,817
812,813
812,815
812,833
813,820
813,960
814,841
815,821
816,862
817,822
817,823
817,824
817,826
818,825
819,820
819,898
820,836
820,869
821,866
822,827
822,828
822,830
823,895
824,828
824,829
825,831
826,866
826,881
827,836
827,913
828,837
828,906
829,835
829,838
830,834
830,913
830,965
831,832
831,833
831,867
832,885
833,841
833,842
835,899
835,933
836,839
836,965
838,840
840,843
840,844
840,845
841,846
841,847
841,852
842,848
842,982
843,850
844,855
845,852
845,853
845,854
845,941
845,946
845,988
846,849
846,851
846,857
847,856
849,859
849,860
850,861
851,864
852,865
854,920
854,969
855,866
856,862
856,863
857,858
858,872
859,868
859,874
859,892
859,966
860,873
860,923
860,941
861,925
862,871
863,869
863,889
863,968
864,875
864,936
865,974
866,867
866,870
867,876
867,878
868,914
870,879
870,882
871,876
871,878
871,880
873,896
873,984
874,881
875,877
875,946
876,886
877,887
878,883
878,884
879,942
880,885
883,937
884,890
884,894
885,891
885,893
885,930
886,889
886,895
887,888
887,892
887,949
887,951
888,901
890,938
891,900
892,896
892,899
892,902
892,971
894,898
894,930
895,897
895,901
896,907
896,982
897,906
897,951
898,905
898,908
899,904
900,903
901,909
905,918
906,961
907,911
908,912
909,910
909,913
911,916
911,917
911,959
912,914
913,915
913,918
914,920
914,921
914,922
915,923
915,925
916,924
918,919
919,933
919,934
920,932
921,931
921,936
922,928
922,935
922,974
923,929
923,930
923,952
925,926
925,927
928,939
931,938
931,954
932,940
933,937
933,948
936,946
937,941
937,942
938,942
938,943
938,947
939,944
939,946
939,948
940,945
940,949
941,952
942,950
943,951
944,953
946,989
947,958
949,984
950,955
950,958
950,960
952,957
952,959
953,954
953,956
953,961
954,963
954,965
957,966
958,967
960,962
960,964
960,968
964,973
964,980
967,971
967,996
968,969
968,970
968,972
969,975
969,976
970,974
971,977
971,979
973,978
974,980
974,983
975,984
976,979
976,985
977,982
978,981
979,987
979,989
979,991
981,993
982,988
983,994
984,986
984,992
984,995
985,990
986,999
987,997
992,996
994,998
995,1000

<end>
